Minimize
5180.000000  x1 + 5180.000000  x2 + 5180.000000  x3 + 5180.000000  x4 + 5180.000000  x5 + 5180.000000  x6 + 5180.000000  x7 + 5180.000000  x8 + 5180.000000  x9 + 5180.000000  x10 + 5180.000000  x11 + 5180.000000  x12 + 5180.000000  x13 + 5180.000000  x14 + 5180.000000  x15 + 5180.000000  x16 + 5180.000000  x17 + 5180.000000  x18 + 5180.000000  x19 + 5180.000000  x20 + 5180.000000  x21 + 5180.000000  x22 + 5180.000000  x23 + 5180.000000  x24 + 5180.000000  x25 + 5180.000000  x26 + 5180.000000  x27 + 5180.000000  x28 + 5180.000000  x29 + 5180.000000  x30 + 5180.000000  x31 + 5180.000000  x32 + 5180.000000  x33 + 5180.000000  x34 +  100.000000 y1 +  100.000000 y2 +  100.000000 y3 +  100.000000 y4 +  100.000000 y5 +  100.000000 y6 +  100.000000 y7 +  100.000000 y8 +  100.000000 y9 +  100.000000 y10 +  100.000000 y11 +  100.000000 y12 +  100.000000 y13 +  100.000000 y14 +  100.000000 y15 +  100.000000 y16 +  100.000000 y17 +  100.000000 y18 +  100.000000 y19 +  100.000000 y20 +  100.000000 y21 +  100.000000 y22 +  100.000000 y23 +  100.000000 y24 +  100.000000 y25 +  100.000000 y26 +  100.000000 y27 +  100.000000 y28 +  100.000000 y29 +  100.000000 y30 +  100.000000 y31 +  100.000000 y32 +  100.000000 y33 +  100.000000 y34

Subject To
 0 x1 +  0 x2 +  1 x3 +  1 x4 +  1 x5 +  1 x6 +  1 x7 +  1 x8 +  1 x9 +  1 x10 +  1 x11 +  1 x12 +  1 x13 +  1 x14 +  1 x15 +  1 x16 +  1 x17 +  1 x18 +  1 x19 +  1 x20 +  1 x21 +  1 x22 +  1 x23 +  1 x24 +  0 x25 +  0 x26 +  8 x27 +  9 x28 +  9 x29 +  9 x30 +  9 x31 +  9 x32 +  9 x33 +  7 x34 >=  91.000000
 0 x1 +  0 x2 +  0 x3 +  0 x4 +  0 x5 +  0 x6 +  0 x7 +  0 x8 +  0 x9 +  0 x10 +  0 x11 +  0 x12 +  0 x13 +  0 x14 +  0 x15 +  0 x16 +  0 x17 +  0 x18 +  0 x19 +  0 x20 +  0 x21 +  0 x22 +  0 x23 +  0 x24 +  5 x25 +  5 x26 +  1 x27 +  0 x28 +  0 x29 +  0 x30 +  0 x31 +  0 x32 +  0 x33 +  0 x34 >=  11.000000
 0 x1 +  0 x2 +  0 x3 +  0 x4 +  0 x5 +  0 x6 +  0 x7 +  0 x8 +  0 x9 +  0 x10 +  0 x11 +  0 x12 +  0 x13 +  0 x14 +  0 x15 +  0 x16 +  0 x17 +  0 x18 +  0 x19 +  2 x20 +  4 x21 +  4 x22 +  4 x23 +  4 x24 +  0 x25 +  0 x26 +  0 x27 +  0 x28 +  0 x29 +  0 x30 +  0 x31 +  0 x32 +  0 x33 +  0 x34 >=  18.000000
 0 x1 +  0 x2 +  0 x3 +  0 x4 +  0 x5 +  0 x6 +  0 x7 +  0 x8 +  0 x9 +  0 x10 +  0 x11 +  0 x12 +  0 x13 +  0 x14 +  0 x15 +  0 x16 +  0 x17 +  3 x18 +  4 x19 +  2 x20 +  0 x21 +  0 x22 +  0 x23 +  0 x24 +  0 x25 +  0 x26 +  0 x27 +  0 x28 +  0 x29 +  0 x30 +  0 x31 +  0 x32 +  0 x33 +  0 x34 >=  9.000000
 0 x1 +  3 x2 +  4 x3 +  4 x4 +  4 x5 +  4 x6 +  4 x7 +  4 x8 +  4 x9 +  4 x10 +  4 x11 +  4 x12 +  4 x13 +  4 x14 +  4 x15 +  4 x16 +  4 x17 +  1 x18 +  0 x19 +  0 x20 +  0 x21 +  0 x22 +  0 x23 +  0 x24 +  0 x25 +  0 x26 +  0 x27 +  0 x28 +  0 x29 +  0 x30 +  0 x31 +  0 x32 +  0 x33 +  0 x34 >=  64.000000
 4 x1 +  1 x2 +  0 x3 +  0 x4 +  0 x5 +  0 x6 +  0 x7 +  0 x8 +  0 x9 +  0 x10 +  0 x11 +  0 x12 +  0 x13 +  0 x14 +  0 x15 +  0 x16 +  0 x17 +  0 x18 +  0 x19 +  0 x20 +  0 x21 +  0 x22 +  0 x23 +  0 x24 +  0 x25 +  0 x26 +  0 x27 +  0 x28 +  0 x29 +  0 x30 +  0 x31 +  0 x32 +  0 x33 +  0 x34 >=  5.000000

c1: x1 -  198.000000  y1 <= 0
c2: x2 -  198.000000  y2 <= 0
c3: x3 -  198.000000  y3 <= 0
c4: x4 -  198.000000  y4 <= 0
c5: x5 -  198.000000  y5 <= 0
c6: x6 -  198.000000  y6 <= 0
c7: x7 -  198.000000  y7 <= 0
c8: x8 -  198.000000  y8 <= 0
c9: x9 -  198.000000  y9 <= 0
c10: x10 -  198.000000  y10 <= 0
c11: x11 -  198.000000  y11 <= 0
c12: x12 -  198.000000  y12 <= 0
c13: x13 -  198.000000  y13 <= 0
c14: x14 -  198.000000  y14 <= 0
c15: x15 -  198.000000  y15 <= 0
c16: x16 -  198.000000  y16 <= 0
c17: x17 -  198.000000  y17 <= 0
c18: x18 -  198.000000  y18 <= 0
c19: x19 -  198.000000  y19 <= 0
c20: x20 -  198.000000  y20 <= 0
c21: x21 -  198.000000  y21 <= 0
c22: x22 -  198.000000  y22 <= 0
c23: x23 -  198.000000  y23 <= 0
c24: x24 -  198.000000  y24 <= 0
c25: x25 -  198.000000  y25 <= 0
c26: x26 -  198.000000  y26 <= 0
c27: x27 -  198.000000  y27 <= 0
c28: x28 -  198.000000  y28 <= 0
c29: x29 -  198.000000  y29 <= 0
c30: x30 -  198.000000  y30 <= 0
c31: x31 -  198.000000  y31 <= 0
c32: x32 -  198.000000  y32 <= 0
c33: x33 -  198.000000  y33 <= 0
c34: x34 -  198.000000  y34 <= 0

Bounds
x1 >= 0
x2 >= 0
x3 >= 0
x4 >= 0
x5 >= 0
x6 >= 0
x7 >= 0
x8 >= 0
x9 >= 0
x10 >= 0
x11 >= 0
x12 >= 0
x13 >= 0
x14 >= 0
x15 >= 0
x16 >= 0
x17 >= 0
x18 >= 0
x19 >= 0
x20 >= 0
x21 >= 0
x22 >= 0
x23 >= 0
x24 >= 0
x25 >= 0
x26 >= 0
x27 >= 0
x28 >= 0
x29 >= 0
x30 >= 0
x31 >= 0
x32 >= 0
x33 >= 0
x34 >= 0

General
x1 x2 x3 x4 x5 x6 x7 x8 x9 x10 x11 x12 x13 x14 x15 x16 x17 x18 x19 x20 x21 x22 x23 x24 x25 x26 x27 x28 x29 x30 x31 x32 x33 x34 

Binary
y1 y2 y3 y4 y5 y6 y7 y8 y9 y10 y11 y12 y13 y14 y15 y16 y17 y18 y19 y20 y21 y22 y23 y24 y25 y26 y27 y28 y29 y30 y31 y32 y33 y34 

End
