Minimize
5180.000000  x1 + 5180.000000  x2 + 5180.000000  x3 + 5180.000000  x4 + 5180.000000  x5 + 5180.000000  x6 + 5180.000000  x7 + 5180.000000  x8 + 5180.000000  x9 + 5180.000000  x10 + 5180.000000  x11 + 5180.000000  x12 + 5180.000000  x13 + 5180.000000  x14 + 5180.000000  x15 + 5180.000000  x16 + 5180.000000  x17 + 5180.000000  x18 + 5180.000000  x19 + 5180.000000  x20 + 5180.000000  x21 + 5180.000000  x22 + 5180.000000  x23 + 5180.000000  x24 + 5180.000000  x25 + 5180.000000  x26 + 5180.000000  x27 + 5180.000000  x28 + 5180.000000  x29 + 5180.000000  x30 + 5180.000000  x31 + 5180.000000  x32 + 5180.000000  x33 + 5180.000000  x34 + 5180.000000  x35 + 5180.000000  x36 + 5180.000000  x37 + 5180.000000  x38 + 5180.000000  x39 + 5180.000000  x40 + 5180.000000  x41 + 5180.000000  x42 + 5180.000000  x43 + 5180.000000  x44 + 5180.000000  x45 + 5180.000000  x46 + 5180.000000  x47 + 5180.000000  x48 + 5180.000000  x49 + 5180.000000  x50 + 5180.000000  x51 + 5180.000000  x52 + 5180.000000  x53 + 5180.000000  x54 + 5180.000000  x55 + 5180.000000  x56 + 5180.000000  x57 + 5180.000000  x58 + 5180.000000  x59 + 5180.000000  x60 + 5180.000000  x61 + 5180.000000  x62 + 5180.000000  x63 + 5180.000000  x64 +  100.000000 y1 +  100.000000 y2 +  100.000000 y3 +  100.000000 y4 +  100.000000 y5 +  100.000000 y6 +  100.000000 y7 +  100.000000 y8 +  100.000000 y9 +  100.000000 y10 +  100.000000 y11 +  100.000000 y12 +  100.000000 y13 +  100.000000 y14 +  100.000000 y15 +  100.000000 y16 +  100.000000 y17 +  100.000000 y18 +  100.000000 y19 +  100.000000 y20 +  100.000000 y21 +  100.000000 y22 +  100.000000 y23 +  100.000000 y24 +  100.000000 y25 +  100.000000 y26 +  100.000000 y27 +  100.000000 y28 +  100.000000 y29 +  100.000000 y30 +  100.000000 y31 +  100.000000 y32 +  100.000000 y33 +  100.000000 y34 +  100.000000 y35 +  100.000000 y36 +  100.000000 y37 +  100.000000 y38 +  100.000000 y39 +  100.000000 y40 +  100.000000 y41 +  100.000000 y42 +  100.000000 y43 +  100.000000 y44 +  100.000000 y45 +  100.000000 y46 +  100.000000 y47 +  100.000000 y48 +  100.000000 y49 +  100.000000 y50 +  100.000000 y51 +  100.000000 y52 +  100.000000 y53 +  100.000000 y54 +  100.000000 y55 +  100.000000 y56 +  100.000000 y57 +  100.000000 y58 +  100.000000 y59 +  100.000000 y60 +  100.000000 y61 +  100.000000 y62 +  100.000000 y63 +  100.000000 y64

Subject To
 0 x1 +  0 x2 +  0 x3 +  0 x4 +  0 x5 +  0 x6 +  0 x7 +  0 x8 +  0 x9 +  0 x10 +  0 x11 +  0 x12 +  0 x13 +  0 x14 +  0 x15 +  0 x16 +  0 x17 +  0 x18 +  0 x19 +  0 x20 +  0 x21 +  0 x22 +  0 x23 +  0 x24 +  0 x25 +  0 x26 +  0 x27 +  0 x28 +  0 x29 +  0 x30 +  0 x31 +  0 x32 +  0 x33 +  0 x34 +  0 x35 +  0 x36 +  0 x37 +  0 x38 +  0 x39 +  0 x40 +  0 x41 +  0 x42 +  0 x43 +  0 x44 +  0 x45 +  0 x46 +  0 x47 +  0 x48 +  0 x49 +  0 x50 +  0 x51 +  0 x52 +  0 x53 +  0 x54 +  0 x55 +  0 x56 +  0 x57 +  0 x58 +  0 x59 +  0 x60 +  0 x61 +  0 x62 +  8 x63 +  2 x64 >=  10.000000
 0 x1 +  0 x2 +  0 x3 +  0 x4 +  0 x5 +  0 x6 +  0 x7 +  0 x8 +  0 x9 +  0 x10 +  0 x11 +  0 x12 +  0 x13 +  0 x14 +  0 x15 +  0 x16 +  0 x17 +  0 x18 +  0 x19 +  0 x20 +  0 x21 +  0 x22 +  0 x23 +  0 x24 +  0 x25 +  0 x26 +  0 x27 +  0 x28 +  0 x29 +  0 x30 +  0 x31 +  0 x32 +  0 x33 +  0 x34 +  0 x35 +  0 x36 +  0 x37 +  0 x38 +  0 x39 +  0 x40 +  0 x41 +  0 x42 +  0 x43 +  0 x44 +  0 x45 +  0 x46 +  0 x47 +  0 x48 +  0 x49 +  0 x50 +  0 x51 +  0 x52 +  0 x53 +  0 x54 +  0 x55 +  0 x56 +  0 x57 +  0 x58 +  0 x59 +  0 x60 +  0 x61 +  9 x62 +  2 x63 +  0 x64 >=  11.000000
 0 x1 +  0 x2 +  0 x3 +  0 x4 +  0 x5 +  0 x6 +  0 x7 +  0 x8 +  0 x9 +  0 x10 +  0 x11 +  0 x12 +  0 x13 +  0 x14 +  0 x15 +  0 x16 +  0 x17 +  0 x18 +  0 x19 +  0 x20 +  0 x21 +  0 x22 +  0 x23 +  0 x24 +  0 x25 +  0 x26 +  0 x27 +  0 x28 +  0 x29 +  0 x30 +  0 x31 +  0 x32 +  0 x33 +  0 x34 +  0 x35 +  0 x36 +  0 x37 +  0 x38 +  0 x39 +  0 x40 +  0 x41 +  0 x42 +  0 x43 +  0 x44 +  0 x45 +  0 x46 +  0 x47 +  0 x48 +  0 x49 +  0 x50 +  0 x51 +  0 x52 +  0 x53 +  0 x54 +  9 x55 +  10 x56 +  10 x57 +  10 x58 +  10 x59 +  10 x60 +  10 x61 +  1 x62 +  0 x63 +  0 x64 >=  70.000000
 0 x1 +  0 x2 +  0 x3 +  0 x4 +  0 x5 +  0 x6 +  0 x7 +  0 x8 +  0 x9 +  0 x10 +  0 x11 +  0 x12 +  0 x13 +  0 x14 +  0 x15 +  0 x16 +  0 x17 +  0 x18 +  0 x19 +  0 x20 +  0 x21 +  0 x22 +  0 x23 +  0 x24 +  0 x25 +  0 x26 +  0 x27 +  0 x28 +  0 x29 +  0 x30 +  0 x31 +  0 x32 +  0 x33 +  0 x34 +  0 x35 +  0 x36 +  0 x37 +  0 x38 +  0 x39 +  0 x40 +  0 x41 +  0 x42 +  0 x43 +  0 x44 +  0 x45 +  0 x46 +  0 x47 +  0 x48 +  0 x49 +  0 x50 +  0 x51 +  0 x52 +  0 x53 +  1 x54 +  1 x55 +  0 x56 +  0 x57 +  0 x58 +  0 x59 +  0 x60 +  0 x61 +  0 x62 +  0 x63 +  0 x64 >=  2.000000
 0 x1 +  0 x2 +  0 x3 +  0 x4 +  0 x5 +  0 x6 +  0 x7 +  0 x8 +  0 x9 +  0 x10 +  0 x11 +  0 x12 +  0 x13 +  0 x14 +  0 x15 +  0 x16 +  1 x17 +  0 x18 +  0 x19 +  0 x20 +  0 x21 +  0 x22 +  0 x23 +  0 x24 +  0 x25 +  0 x26 +  0 x27 +  0 x28 +  0 x29 +  0 x30 +  0 x31 +  0 x32 +  0 x33 +  0 x34 +  0 x35 +  0 x36 +  0 x37 +  0 x38 +  0 x39 +  0 x40 +  0 x41 +  0 x42 +  0 x43 +  0 x44 +  0 x45 +  0 x46 +  0 x47 +  0 x48 +  0 x49 +  0 x50 +  0 x51 +  0 x52 +  3 x53 +  8 x54 +  0 x55 +  0 x56 +  0 x57 +  0 x58 +  0 x59 +  0 x60 +  0 x61 +  0 x62 +  0 x63 +  0 x64 >=  12.000000
 0 x1 +  0 x2 +  0 x3 +  0 x4 +  0 x5 +  0 x6 +  0 x7 +  0 x8 +  0 x9 +  0 x10 +  0 x11 +  0 x12 +  0 x13 +  0 x14 +  0 x15 +  0 x16 +  0 x17 +  1 x18 +  0 x19 +  0 x20 +  0 x21 +  0 x22 +  0 x23 +  0 x24 +  0 x25 +  0 x26 +  0 x27 +  0 x28 +  0 x29 +  0 x30 +  0 x31 +  0 x32 +  0 x33 +  0 x34 +  0 x35 +  0 x36 +  0 x37 +  0 x38 +  0 x39 +  0 x40 +  0 x41 +  0 x42 +  1 x43 +  1 x44 +  1 x45 +  0 x46 +  5 x47 +  9 x48 +  9 x49 +  9 x50 +  9 x51 +  9 x52 +  6 x53 +  0 x54 +  0 x55 +  0 x56 +  0 x57 +  0 x58 +  0 x59 +  0 x60 +  0 x61 +  0 x62 +  0 x63 +  0 x64 >=  60.000000
 0 x1 +  0 x2 +  0 x3 +  0 x4 +  0 x5 +  0 x6 +  0 x7 +  0 x8 +  0 x9 +  0 x10 +  0 x11 +  0 x12 +  0 x13 +  0 x14 +  0 x15 +  0 x16 +  0 x17 +  0 x18 +  1 x19 +  1 x20 +  1 x21 +  1 x22 +  1 x23 +  0 x24 +  0 x25 +  0 x26 +  0 x27 +  0 x28 +  0 x29 +  0 x30 +  0 x31 +  0 x32 +  0 x33 +  0 x34 +  0 x35 +  0 x36 +  0 x37 +  0 x38 +  0 x39 +  0 x40 +  0 x41 +  0 x42 +  0 x43 +  0 x44 +  0 x45 +  2 x46 +  3 x47 +  0 x48 +  0 x49 +  0 x50 +  0 x51 +  0 x52 +  0 x53 +  0 x54 +  0 x55 +  0 x56 +  0 x57 +  0 x58 +  0 x59 +  0 x60 +  0 x61 +  0 x62 +  0 x63 +  0 x64 >=  10.000000
 0 x1 +  0 x2 +  0 x3 +  0 x4 +  0 x5 +  0 x6 +  0 x7 +  0 x8 +  0 x9 +  0 x10 +  0 x11 +  0 x12 +  0 x13 +  0 x14 +  0 x15 +  0 x16 +  0 x17 +  0 x18 +  0 x19 +  0 x20 +  0 x21 +  0 x22 +  0 x23 +  0 x24 +  0 x25 +  0 x26 +  0 x27 +  0 x28 +  0 x29 +  0 x30 +  0 x31 +  0 x32 +  0 x33 +  0 x34 +  0 x35 +  0 x36 +  0 x37 +  0 x38 +  0 x39 +  0 x40 +  0 x41 +  0 x42 +  0 x43 +  0 x44 +  0 x45 +  3 x46 +  0 x47 +  0 x48 +  0 x49 +  0 x50 +  0 x51 +  0 x52 +  0 x53 +  0 x54 +  0 x55 +  0 x56 +  0 x57 +  0 x58 +  0 x59 +  0 x60 +  0 x61 +  0 x62 +  0 x63 +  0 x64 >=  3.000000
 0 x1 +  0 x2 +  0 x3 +  0 x4 +  0 x5 +  0 x6 +  0 x7 +  0 x8 +  0 x9 +  0 x10 +  0 x11 +  0 x12 +  0 x13 +  0 x14 +  0 x15 +  0 x16 +  0 x17 +  0 x18 +  0 x19 +  0 x20 +  0 x21 +  0 x22 +  0 x23 +  0 x24 +  0 x25 +  0 x26 +  0 x27 +  0 x28 +  0 x29 +  0 x30 +  0 x31 +  0 x32 +  0 x33 +  0 x34 +  0 x35 +  0 x36 +  0 x37 +  0 x38 +  0 x39 +  0 x40 +  0 x41 +  0 x42 +  4 x43 +  5 x44 +  5 x45 +  1 x46 +  0 x47 +  0 x48 +  0 x49 +  0 x50 +  0 x51 +  0 x52 +  0 x53 +  0 x54 +  0 x55 +  0 x56 +  0 x57 +  0 x58 +  0 x59 +  0 x60 +  0 x61 +  0 x62 +  0 x63 +  0 x64 >=  15.000000
 0 x1 +  0 x2 +  0 x3 +  0 x4 +  0 x5 +  0 x6 +  0 x7 +  0 x8 +  0 x9 +  0 x10 +  0 x11 +  0 x12 +  0 x13 +  0 x14 +  0 x15 +  0 x16 +  0 x17 +  0 x18 +  0 x19 +  0 x20 +  0 x21 +  0 x22 +  0 x23 +  0 x24 +  0 x25 +  0 x26 +  0 x27 +  0 x28 +  0 x29 +  0 x30 +  0 x31 +  0 x32 +  0 x33 +  0 x34 +  0 x35 +  0 x36 +  0 x37 +  0 x38 +  0 x39 +  0 x40 +  0 x41 +  1 x42 +  1 x43 +  0 x44 +  0 x45 +  0 x46 +  0 x47 +  0 x48 +  0 x49 +  0 x50 +  0 x51 +  0 x52 +  0 x53 +  0 x54 +  0 x55 +  0 x56 +  0 x57 +  0 x58 +  0 x59 +  0 x60 +  0 x61 +  0 x62 +  0 x63 +  0 x64 >=  2.000000
 0 x1 +  0 x2 +  0 x3 +  0 x4 +  0 x5 +  0 x6 +  0 x7 +  0 x8 +  0 x9 +  0 x10 +  0 x11 +  0 x12 +  0 x13 +  0 x14 +  0 x15 +  0 x16 +  0 x17 +  0 x18 +  0 x19 +  0 x20 +  0 x21 +  0 x22 +  0 x23 +  0 x24 +  0 x25 +  0 x26 +  0 x27 +  0 x28 +  0 x29 +  0 x30 +  0 x31 +  0 x32 +  0 x33 +  0 x34 +  0 x35 +  0 x36 +  0 x37 +  0 x38 +  0 x39 +  3 x40 +  5 x41 +  4 x42 +  0 x43 +  0 x44 +  0 x45 +  0 x46 +  0 x47 +  0 x48 +  0 x49 +  0 x50 +  0 x51 +  0 x52 +  0 x53 +  0 x54 +  0 x55 +  0 x56 +  0 x57 +  0 x58 +  0 x59 +  0 x60 +  0 x61 +  0 x62 +  0 x63 +  0 x64 >=  12.000000
 0 x1 +  0 x2 +  0 x3 +  0 x4 +  0 x5 +  0 x6 +  0 x7 +  0 x8 +  0 x9 +  0 x10 +  0 x11 +  0 x12 +  0 x13 +  0 x14 +  0 x15 +  0 x16 +  0 x17 +  0 x18 +  0 x19 +  0 x20 +  0 x21 +  0 x22 +  0 x23 +  0 x24 +  0 x25 +  0 x26 +  0 x27 +  0 x28 +  0 x29 +  0 x30 +  0 x31 +  0 x32 +  0 x33 +  0 x34 +  0 x35 +  0 x36 +  0 x37 +  0 x38 +  1 x39 +  2 x40 +  0 x41 +  0 x42 +  0 x43 +  0 x44 +  0 x45 +  0 x46 +  0 x47 +  0 x48 +  0 x49 +  0 x50 +  0 x51 +  0 x52 +  0 x53 +  0 x54 +  0 x55 +  0 x56 +  0 x57 +  0 x58 +  0 x59 +  0 x60 +  0 x61 +  0 x62 +  0 x63 +  0 x64 >=  3.000000
 0 x1 +  0 x2 +  0 x3 +  0 x4 +  0 x5 +  0 x6 +  0 x7 +  0 x8 +  0 x9 +  0 x10 +  0 x11 +  0 x12 +  0 x13 +  0 x14 +  0 x15 +  0 x16 +  0 x17 +  0 x18 +  0 x19 +  0 x20 +  0 x21 +  0 x22 +  0 x23 +  0 x24 +  0 x25 +  0 x26 +  0 x27 +  0 x28 +  0 x29 +  0 x30 +  0 x31 +  1 x32 +  5 x33 +  5 x34 +  5 x35 +  5 x36 +  5 x37 +  5 x38 +  4 x39 +  0 x40 +  0 x41 +  0 x42 +  0 x43 +  0 x44 +  0 x45 +  0 x46 +  0 x47 +  0 x48 +  0 x49 +  0 x50 +  0 x51 +  0 x52 +  0 x53 +  0 x54 +  0 x55 +  0 x56 +  0 x57 +  0 x58 +  0 x59 +  0 x60 +  0 x61 +  0 x62 +  0 x63 +  0 x64 >=  35.000000
 0 x1 +  0 x2 +  0 x3 +  0 x4 +  0 x5 +  0 x6 +  0 x7 +  0 x8 +  0 x9 +  0 x10 +  0 x11 +  0 x12 +  0 x13 +  0 x14 +  0 x15 +  0 x16 +  0 x17 +  0 x18 +  0 x19 +  0 x20 +  0 x21 +  0 x22 +  0 x23 +  1 x24 +  0 x25 +  0 x26 +  5 x27 +  5 x28 +  5 x29 +  5 x30 +  5 x31 +  4 x32 +  0 x33 +  0 x34 +  0 x35 +  0 x36 +  0 x37 +  0 x38 +  0 x39 +  0 x40 +  0 x41 +  0 x42 +  0 x43 +  0 x44 +  0 x45 +  0 x46 +  0 x47 +  0 x48 +  0 x49 +  0 x50 +  0 x51 +  0 x52 +  0 x53 +  0 x54 +  0 x55 +  0 x56 +  0 x57 +  0 x58 +  0 x59 +  0 x60 +  0 x61 +  0 x62 +  0 x63 +  0 x64 >=  30.000000
 0 x1 +  0 x2 +  0 x3 +  0 x4 +  0 x5 +  0 x6 +  0 x7 +  0 x8 +  0 x9 +  0 x10 +  0 x11 +  0 x12 +  0 x13 +  0 x14 +  0 x15 +  0 x16 +  0 x17 +  0 x18 +  0 x19 +  0 x20 +  0 x21 +  0 x22 +  0 x23 +  0 x24 +  5 x25 +  5 x26 +  0 x27 +  0 x28 +  0 x29 +  0 x30 +  0 x31 +  0 x32 +  0 x33 +  0 x34 +  0 x35 +  0 x36 +  0 x37 +  0 x38 +  0 x39 +  0 x40 +  0 x41 +  0 x42 +  0 x43 +  0 x44 +  0 x45 +  0 x46 +  0 x47 +  0 x48 +  0 x49 +  0 x50 +  0 x51 +  0 x52 +  0 x53 +  0 x54 +  0 x55 +  0 x56 +  0 x57 +  0 x58 +  0 x59 +  0 x60 +  0 x61 +  0 x62 +  0 x63 +  0 x64 >=  10.000000
 0 x1 +  0 x2 +  0 x3 +  0 x4 +  0 x5 +  0 x6 +  0 x7 +  0 x8 +  0 x9 +  0 x10 +  0 x11 +  0 x12 +  0 x13 +  0 x14 +  0 x15 +  0 x16 +  0 x17 +  0 x18 +  0 x19 +  0 x20 +  0 x21 +  0 x22 +  2 x23 +  4 x24 +  0 x25 +  0 x26 +  0 x27 +  0 x28 +  0 x29 +  0 x30 +  0 x31 +  0 x32 +  0 x33 +  0 x34 +  0 x35 +  0 x36 +  0 x37 +  0 x38 +  0 x39 +  0 x40 +  0 x41 +  0 x42 +  0 x43 +  0 x44 +  0 x45 +  0 x46 +  0 x47 +  0 x48 +  0 x49 +  0 x50 +  0 x51 +  0 x52 +  0 x53 +  0 x54 +  0 x55 +  0 x56 +  0 x57 +  0 x58 +  0 x59 +  0 x60 +  0 x61 +  0 x62 +  0 x63 +  0 x64 >=  6.000000
 0 x1 +  0 x2 +  0 x3 +  0 x4 +  0 x5 +  0 x6 +  0 x7 +  0 x8 +  0 x9 +  0 x10 +  0 x11 +  0 x12 +  0 x13 +  0 x14 +  0 x15 +  0 x16 +  0 x17 +  0 x18 +  0 x19 +  0 x20 +  0 x21 +  4 x22 +  2 x23 +  0 x24 +  0 x25 +  0 x26 +  0 x27 +  0 x28 +  0 x29 +  0 x30 +  0 x31 +  0 x32 +  0 x33 +  0 x34 +  0 x35 +  0 x36 +  0 x37 +  0 x38 +  0 x39 +  0 x40 +  0 x41 +  0 x42 +  0 x43 +  0 x44 +  0 x45 +  0 x46 +  0 x47 +  0 x48 +  0 x49 +  0 x50 +  0 x51 +  0 x52 +  0 x53 +  0 x54 +  0 x55 +  0 x56 +  0 x57 +  0 x58 +  0 x59 +  0 x60 +  0 x61 +  0 x62 +  0 x63 +  0 x64 >=  6.000000
 1 x1 +  1 x2 +  1 x3 +  0 x4 +  0 x5 +  0 x6 +  0 x7 +  0 x8 +  0 x9 +  0 x10 +  0 x11 +  0 x12 +  0 x13 +  0 x14 +  0 x15 +  0 x16 +  0 x17 +  0 x18 +  0 x19 +  1 x20 +  4 x21 +  0 x22 +  0 x23 +  0 x24 +  0 x25 +  0 x26 +  0 x27 +  0 x28 +  0 x29 +  0 x30 +  0 x31 +  0 x32 +  0 x33 +  0 x34 +  0 x35 +  0 x36 +  0 x37 +  0 x38 +  0 x39 +  0 x40 +  0 x41 +  0 x42 +  0 x43 +  0 x44 +  0 x45 +  0 x46 +  0 x47 +  0 x48 +  0 x49 +  0 x50 +  0 x51 +  0 x52 +  0 x53 +  0 x54 +  0 x55 +  0 x56 +  0 x57 +  0 x58 +  0 x59 +  0 x60 +  0 x61 +  0 x62 +  0 x63 +  0 x64 >=  8.000000
 0 x1 +  0 x2 +  0 x3 +  0 x4 +  0 x5 +  0 x6 +  0 x7 +  0 x8 +  0 x9 +  0 x10 +  0 x11 +  0 x12 +  0 x13 +  0 x14 +  0 x15 +  0 x16 +  0 x17 +  0 x18 +  0 x19 +  3 x20 +  0 x21 +  0 x22 +  0 x23 +  0 x24 +  0 x25 +  0 x26 +  0 x27 +  0 x28 +  0 x29 +  0 x30 +  0 x31 +  0 x32 +  0 x33 +  0 x34 +  0 x35 +  0 x36 +  0 x37 +  0 x38 +  0 x39 +  0 x40 +  0 x41 +  0 x42 +  0 x43 +  0 x44 +  0 x45 +  0 x46 +  0 x47 +  0 x48 +  0 x49 +  0 x50 +  0 x51 +  0 x52 +  0 x53 +  0 x54 +  0 x55 +  0 x56 +  0 x57 +  0 x58 +  0 x59 +  0 x60 +  0 x61 +  0 x62 +  0 x63 +  0 x64 >=  3.000000
 0 x1 +  0 x2 +  0 x3 +  0 x4 +  0 x5 +  0 x6 +  0 x7 +  0 x8 +  0 x9 +  0 x10 +  0 x11 +  0 x12 +  0 x13 +  0 x14 +  0 x15 +  0 x16 +  0 x17 +  0 x18 +  2 x19 +  0 x20 +  0 x21 +  0 x22 +  0 x23 +  0 x24 +  0 x25 +  0 x26 +  0 x27 +  0 x28 +  0 x29 +  0 x30 +  0 x31 +  0 x32 +  0 x33 +  0 x34 +  0 x35 +  0 x36 +  0 x37 +  0 x38 +  0 x39 +  0 x40 +  0 x41 +  0 x42 +  0 x43 +  0 x44 +  0 x45 +  0 x46 +  0 x47 +  0 x48 +  0 x49 +  0 x50 +  0 x51 +  0 x52 +  0 x53 +  0 x54 +  0 x55 +  0 x56 +  0 x57 +  0 x58 +  0 x59 +  0 x60 +  0 x61 +  0 x62 +  0 x63 +  0 x64 >=  2.000000
 0 x1 +  0 x2 +  0 x3 +  0 x4 +  0 x5 +  0 x6 +  0 x7 +  0 x8 +  0 x9 +  0 x10 +  0 x11 +  0 x12 +  0 x13 +  0 x14 +  0 x15 +  0 x16 +  0 x17 +  3 x18 +  2 x19 +  0 x20 +  0 x21 +  0 x22 +  0 x23 +  0 x24 +  0 x25 +  0 x26 +  0 x27 +  0 x28 +  0 x29 +  0 x30 +  0 x31 +  0 x32 +  0 x33 +  0 x34 +  0 x35 +  0 x36 +  0 x37 +  0 x38 +  0 x39 +  0 x40 +  0 x41 +  0 x42 +  0 x43 +  0 x44 +  0 x45 +  0 x46 +  0 x47 +  0 x48 +  0 x49 +  0 x50 +  0 x51 +  0 x52 +  0 x53 +  0 x54 +  0 x55 +  0 x56 +  0 x57 +  0 x58 +  0 x59 +  0 x60 +  0 x61 +  0 x62 +  0 x63 +  0 x64 >=  5.000000
 0 x1 +  0 x2 +  0 x3 +  0 x4 +  0 x5 +  0 x6 +  0 x7 +  0 x8 +  0 x9 +  0 x10 +  0 x11 +  0 x12 +  0 x13 +  0 x14 +  0 x15 +  0 x16 +  1 x17 +  1 x18 +  0 x19 +  0 x20 +  0 x21 +  0 x22 +  0 x23 +  0 x24 +  0 x25 +  0 x26 +  0 x27 +  0 x28 +  0 x29 +  0 x30 +  0 x31 +  0 x32 +  0 x33 +  0 x34 +  0 x35 +  0 x36 +  0 x37 +  0 x38 +  0 x39 +  0 x40 +  0 x41 +  0 x42 +  0 x43 +  0 x44 +  0 x45 +  0 x46 +  0 x47 +  0 x48 +  0 x49 +  0 x50 +  0 x51 +  0 x52 +  0 x53 +  0 x54 +  0 x55 +  0 x56 +  0 x57 +  0 x58 +  0 x59 +  0 x60 +  0 x61 +  0 x62 +  0 x63 +  0 x64 >=  2.000000
 0 x1 +  0 x2 +  0 x3 +  0 x4 +  0 x5 +  0 x6 +  0 x7 +  0 x8 +  0 x9 +  0 x10 +  0 x11 +  0 x12 +  0 x13 +  0 x14 +  0 x15 +  3 x16 +  3 x17 +  0 x18 +  0 x19 +  0 x20 +  0 x21 +  0 x22 +  0 x23 +  0 x24 +  0 x25 +  0 x26 +  0 x27 +  0 x28 +  0 x29 +  0 x30 +  0 x31 +  0 x32 +  0 x33 +  0 x34 +  0 x35 +  0 x36 +  0 x37 +  0 x38 +  0 x39 +  0 x40 +  0 x41 +  0 x42 +  0 x43 +  0 x44 +  0 x45 +  0 x46 +  0 x47 +  0 x48 +  0 x49 +  0 x50 +  0 x51 +  0 x52 +  0 x53 +  0 x54 +  0 x55 +  0 x56 +  0 x57 +  0 x58 +  0 x59 +  0 x60 +  0 x61 +  0 x62 +  0 x63 +  0 x64 >=  6.000000
 0 x1 +  0 x2 +  0 x3 +  0 x4 +  0 x5 +  0 x6 +  0 x7 +  0 x8 +  0 x9 +  3 x10 +  4 x11 +  4 x12 +  4 x13 +  4 x14 +  4 x15 +  1 x16 +  0 x17 +  0 x18 +  0 x19 +  0 x20 +  0 x21 +  0 x22 +  0 x23 +  0 x24 +  0 x25 +  0 x26 +  0 x27 +  0 x28 +  0 x29 +  0 x30 +  0 x31 +  0 x32 +  0 x33 +  0 x34 +  0 x35 +  0 x36 +  0 x37 +  0 x38 +  0 x39 +  0 x40 +  0 x41 +  0 x42 +  0 x43 +  0 x44 +  0 x45 +  0 x46 +  0 x47 +  0 x48 +  0 x49 +  0 x50 +  0 x51 +  0 x52 +  0 x53 +  0 x54 +  0 x55 +  0 x56 +  0 x57 +  0 x58 +  0 x59 +  0 x60 +  0 x61 +  0 x62 +  0 x63 +  0 x64 >=  24.000000
 0 x1 +  0 x2 +  0 x3 +  0 x4 +  0 x5 +  0 x6 +  3 x7 +  4 x8 +  4 x9 +  1 x10 +  0 x11 +  0 x12 +  0 x13 +  0 x14 +  0 x15 +  0 x16 +  0 x17 +  0 x18 +  0 x19 +  0 x20 +  0 x21 +  0 x22 +  0 x23 +  0 x24 +  0 x25 +  0 x26 +  0 x27 +  0 x28 +  0 x29 +  0 x30 +  0 x31 +  0 x32 +  0 x33 +  0 x34 +  0 x35 +  0 x36 +  0 x37 +  0 x38 +  0 x39 +  0 x40 +  0 x41 +  0 x42 +  0 x43 +  0 x44 +  0 x45 +  0 x46 +  0 x47 +  0 x48 +  0 x49 +  0 x50 +  0 x51 +  0 x52 +  0 x53 +  0 x54 +  0 x55 +  0 x56 +  0 x57 +  0 x58 +  0 x59 +  0 x60 +  0 x61 +  0 x62 +  0 x63 +  0 x64 >=  12.000000
 0 x1 +  0 x2 +  0 x3 +  1 x4 +  4 x5 +  4 x6 +  1 x7 +  0 x8 +  0 x9 +  0 x10 +  0 x11 +  0 x12 +  0 x13 +  0 x14 +  0 x15 +  0 x16 +  0 x17 +  0 x18 +  0 x19 +  0 x20 +  0 x21 +  0 x22 +  0 x23 +  0 x24 +  0 x25 +  0 x26 +  0 x27 +  0 x28 +  0 x29 +  0 x30 +  0 x31 +  0 x32 +  0 x33 +  0 x34 +  0 x35 +  0 x36 +  0 x37 +  0 x38 +  0 x39 +  0 x40 +  0 x41 +  0 x42 +  0 x43 +  0 x44 +  0 x45 +  0 x46 +  0 x47 +  0 x48 +  0 x49 +  0 x50 +  0 x51 +  0 x52 +  0 x53 +  0 x54 +  0 x55 +  0 x56 +  0 x57 +  0 x58 +  0 x59 +  0 x60 +  0 x61 +  0 x62 +  0 x63 +  0 x64 >=  10.000000
 0 x1 +  0 x2 +  0 x3 +  2 x4 +  0 x5 +  0 x6 +  0 x7 +  0 x8 +  0 x9 +  0 x10 +  0 x11 +  0 x12 +  0 x13 +  0 x14 +  0 x15 +  0 x16 +  0 x17 +  0 x18 +  0 x19 +  0 x20 +  0 x21 +  0 x22 +  0 x23 +  0 x24 +  0 x25 +  0 x26 +  0 x27 +  0 x28 +  0 x29 +  0 x30 +  0 x31 +  0 x32 +  0 x33 +  0 x34 +  0 x35 +  0 x36 +  0 x37 +  0 x38 +  0 x39 +  0 x40 +  0 x41 +  0 x42 +  0 x43 +  0 x44 +  0 x45 +  0 x46 +  0 x47 +  0 x48 +  0 x49 +  0 x50 +  0 x51 +  0 x52 +  0 x53 +  0 x54 +  0 x55 +  0 x56 +  0 x57 +  0 x58 +  0 x59 +  0 x60 +  0 x61 +  0 x62 +  0 x63 +  0 x64 >=  2.000000
 0 x1 +  0 x2 +  1 x3 +  1 x4 +  0 x5 +  0 x6 +  0 x7 +  0 x8 +  0 x9 +  0 x10 +  0 x11 +  0 x12 +  0 x13 +  0 x14 +  0 x15 +  0 x16 +  0 x17 +  0 x18 +  0 x19 +  0 x20 +  0 x21 +  0 x22 +  0 x23 +  0 x24 +  0 x25 +  0 x26 +  0 x27 +  0 x28 +  0 x29 +  0 x30 +  0 x31 +  0 x32 +  0 x33 +  0 x34 +  0 x35 +  0 x36 +  0 x37 +  0 x38 +  0 x39 +  0 x40 +  0 x41 +  0 x42 +  0 x43 +  0 x44 +  0 x45 +  0 x46 +  0 x47 +  0 x48 +  0 x49 +  0 x50 +  0 x51 +  0 x52 +  0 x53 +  0 x54 +  0 x55 +  0 x56 +  0 x57 +  0 x58 +  0 x59 +  0 x60 +  0 x61 +  0 x62 +  0 x63 +  0 x64 >=  2.000000
 3 x1 +  3 x2 +  2 x3 +  0 x4 +  0 x5 +  0 x6 +  0 x7 +  0 x8 +  0 x9 +  0 x10 +  0 x11 +  0 x12 +  0 x13 +  0 x14 +  0 x15 +  0 x16 +  0 x17 +  0 x18 +  0 x19 +  0 x20 +  0 x21 +  0 x22 +  0 x23 +  0 x24 +  0 x25 +  0 x26 +  0 x27 +  0 x28 +  0 x29 +  0 x30 +  0 x31 +  0 x32 +  0 x33 +  0 x34 +  0 x35 +  0 x36 +  0 x37 +  0 x38 +  0 x39 +  0 x40 +  0 x41 +  0 x42 +  0 x43 +  0 x44 +  0 x45 +  0 x46 +  0 x47 +  0 x48 +  0 x49 +  0 x50 +  0 x51 +  0 x52 +  0 x53 +  0 x54 +  0 x55 +  0 x56 +  0 x57 +  0 x58 +  0 x59 +  0 x60 +  0 x61 +  0 x62 +  0 x63 +  0 x64 >=  8.000000

c1: x1 -  381.000000  y1 <= 0
c2: x2 -  381.000000  y2 <= 0
c3: x3 -  381.000000  y3 <= 0
c4: x4 -  381.000000  y4 <= 0
c5: x5 -  381.000000  y5 <= 0
c6: x6 -  381.000000  y6 <= 0
c7: x7 -  381.000000  y7 <= 0
c8: x8 -  381.000000  y8 <= 0
c9: x9 -  381.000000  y9 <= 0
c10: x10 -  381.000000  y10 <= 0
c11: x11 -  381.000000  y11 <= 0
c12: x12 -  381.000000  y12 <= 0
c13: x13 -  381.000000  y13 <= 0
c14: x14 -  381.000000  y14 <= 0
c15: x15 -  381.000000  y15 <= 0
c16: x16 -  381.000000  y16 <= 0
c17: x17 -  381.000000  y17 <= 0
c18: x18 -  381.000000  y18 <= 0
c19: x19 -  381.000000  y19 <= 0
c20: x20 -  381.000000  y20 <= 0
c21: x21 -  381.000000  y21 <= 0
c22: x22 -  381.000000  y22 <= 0
c23: x23 -  381.000000  y23 <= 0
c24: x24 -  381.000000  y24 <= 0
c25: x25 -  381.000000  y25 <= 0
c26: x26 -  381.000000  y26 <= 0
c27: x27 -  381.000000  y27 <= 0
c28: x28 -  381.000000  y28 <= 0
c29: x29 -  381.000000  y29 <= 0
c30: x30 -  381.000000  y30 <= 0
c31: x31 -  381.000000  y31 <= 0
c32: x32 -  381.000000  y32 <= 0
c33: x33 -  381.000000  y33 <= 0
c34: x34 -  381.000000  y34 <= 0
c35: x35 -  381.000000  y35 <= 0
c36: x36 -  381.000000  y36 <= 0
c37: x37 -  381.000000  y37 <= 0
c38: x38 -  381.000000  y38 <= 0
c39: x39 -  381.000000  y39 <= 0
c40: x40 -  381.000000  y40 <= 0
c41: x41 -  381.000000  y41 <= 0
c42: x42 -  381.000000  y42 <= 0
c43: x43 -  381.000000  y43 <= 0
c44: x44 -  381.000000  y44 <= 0
c45: x45 -  381.000000  y45 <= 0
c46: x46 -  381.000000  y46 <= 0
c47: x47 -  381.000000  y47 <= 0
c48: x48 -  381.000000  y48 <= 0
c49: x49 -  381.000000  y49 <= 0
c50: x50 -  381.000000  y50 <= 0
c51: x51 -  381.000000  y51 <= 0
c52: x52 -  381.000000  y52 <= 0
c53: x53 -  381.000000  y53 <= 0
c54: x54 -  381.000000  y54 <= 0
c55: x55 -  381.000000  y55 <= 0
c56: x56 -  381.000000  y56 <= 0
c57: x57 -  381.000000  y57 <= 0
c58: x58 -  381.000000  y58 <= 0
c59: x59 -  381.000000  y59 <= 0
c60: x60 -  381.000000  y60 <= 0
c61: x61 -  381.000000  y61 <= 0
c62: x62 -  381.000000  y62 <= 0
c63: x63 -  381.000000  y63 <= 0
c64: x64 -  381.000000  y64 <= 0

Bounds
x1 >= 0
x2 >= 0
x3 >= 0
x4 >= 0
x5 >= 0
x6 >= 0
x7 >= 0
x8 >= 0
x9 >= 0
x10 >= 0
x11 >= 0
x12 >= 0
x13 >= 0
x14 >= 0
x15 >= 0
x16 >= 0
x17 >= 0
x18 >= 0
x19 >= 0
x20 >= 0
x21 >= 0
x22 >= 0
x23 >= 0
x24 >= 0
x25 >= 0
x26 >= 0
x27 >= 0
x28 >= 0
x29 >= 0
x30 >= 0
x31 >= 0
x32 >= 0
x33 >= 0
x34 >= 0
x35 >= 0
x36 >= 0
x37 >= 0
x38 >= 0
x39 >= 0
x40 >= 0
x41 >= 0
x42 >= 0
x43 >= 0
x44 >= 0
x45 >= 0
x46 >= 0
x47 >= 0
x48 >= 0
x49 >= 0
x50 >= 0
x51 >= 0
x52 >= 0
x53 >= 0
x54 >= 0
x55 >= 0
x56 >= 0
x57 >= 0
x58 >= 0
x59 >= 0
x60 >= 0
x61 >= 0
x62 >= 0
x63 >= 0
x64 >= 0

General
x1 x2 x3 x4 x5 x6 x7 x8 x9 x10 x11 x12 x13 x14 x15 x16 x17 x18 x19 x20 x21 x22 x23 x24 x25 x26 x27 x28 x29 x30 x31 x32 x33 x34 x35 x36 x37 x38 x39 x40 x41 x42 x43 x44 x45 x46 x47 x48 x49 x50 x51 x52 x53 x54 x55 x56 x57 x58 x59 x60 x61 x62 x63 x64 

Binary
y1 y2 y3 y4 y5 y6 y7 y8 y9 y10 y11 y12 y13 y14 y15 y16 y17 y18 y19 y20 y21 y22 y23 y24 y25 y26 y27 y28 y29 y30 y31 y32 y33 y34 y35 y36 y37 y38 y39 y40 y41 y42 y43 y44 y45 y46 y47 y48 y49 y50 y51 y52 y53 y54 y55 y56 y57 y58 y59 y60 y61 y62 y63 y64 

End
