Minimize
9080.000000  x1 + 9080.000000  x2 + 9080.000000  x3 + 9080.000000  x4 + 9080.000000  x5 + 9080.000000  x6 + 9080.000000  x7 + 9080.000000  x8 + 9080.000000  x9 + 9080.000000  x10 + 9080.000000  x11 + 9080.000000  x12 + 9080.000000  x13 + 9080.000000  x14 + 9080.000000  x15 + 9080.000000  x16 + 9080.000000  x17 + 9080.000000  x18 + 9080.000000  x19 +  100.000000 y1 +  100.000000 y2 +  100.000000 y3 +  100.000000 y4 +  100.000000 y5 +  100.000000 y6 +  100.000000 y7 +  100.000000 y8 +  100.000000 y9 +  100.000000 y10 +  100.000000 y11 +  100.000000 y12 +  100.000000 y13 +  100.000000 y14 +  100.000000 y15 +  100.000000 y16 +  100.000000 y17 +  100.000000 y18 +  100.000000 y19

Subject To
 1 x1 +  0 x2 +  0 x3 +  0 x4 +  0 x5 +  0 x6 +  0 x7 +  0 x8 +  0 x9 +  0 x10 +  0 x11 +  1 x12 +  1 x13 +  9 x14 +  17 x15 +  17 x16 +  17 x17 +  17 x18 +  11 x19 >=  91.000000
 0 x1 +  1 x2 +  1 x3 +  1 x4 +  1 x5 +  1 x6 +  1 x7 +  1 x8 +  1 x9 +  1 x10 +  0 x11 +  0 x12 +  0 x13 +  2 x14 +  0 x15 +  0 x16 +  0 x17 +  0 x18 +  0 x19 >=  11.000000
 0 x1 +  0 x2 +  0 x3 +  0 x4 +  0 x5 +  0 x6 +  0 x7 +  0 x8 +  0 x9 +  0 x10 +  0 x11 +  8 x12 +  8 x13 +  2 x14 +  0 x15 +  0 x16 +  0 x17 +  0 x18 +  0 x19 >=  18.000000
 0 x1 +  0 x2 +  0 x3 +  0 x4 +  0 x5 +  0 x6 +  0 x7 +  0 x8 +  0 x9 +  1 x10 +  8 x11 +  0 x12 +  0 x13 +  0 x14 +  0 x15 +  0 x16 +  0 x17 +  0 x18 +  0 x19 >=  9.000000
 2 x1 +  7 x2 +  7 x3 +  7 x4 +  7 x5 +  7 x6 +  7 x7 +  7 x8 +  7 x9 +  6 x10 +  0 x11 +  0 x12 +  0 x13 +  0 x14 +  0 x15 +  0 x16 +  0 x17 +  0 x18 +  0 x19 >=  64.000000
 5 x1 +  0 x2 +  0 x3 +  0 x4 +  0 x5 +  0 x6 +  0 x7 +  0 x8 +  0 x9 +  0 x10 +  0 x11 +  0 x12 +  0 x13 +  0 x14 +  0 x15 +  0 x16 +  0 x17 +  0 x18 +  0 x19 >=  5.000000

c1: x1 -  198.000000  y1 <= 0
c2: x2 -  198.000000  y2 <= 0
c3: x3 -  198.000000  y3 <= 0
c4: x4 -  198.000000  y4 <= 0
c5: x5 -  198.000000  y5 <= 0
c6: x6 -  198.000000  y6 <= 0
c7: x7 -  198.000000  y7 <= 0
c8: x8 -  198.000000  y8 <= 0
c9: x9 -  198.000000  y9 <= 0
c10: x10 -  198.000000  y10 <= 0
c11: x11 -  198.000000  y11 <= 0
c12: x12 -  198.000000  y12 <= 0
c13: x13 -  198.000000  y13 <= 0
c14: x14 -  198.000000  y14 <= 0
c15: x15 -  198.000000  y15 <= 0
c16: x16 -  198.000000  y16 <= 0
c17: x17 -  198.000000  y17 <= 0
c18: x18 -  198.000000  y18 <= 0
c19: x19 -  198.000000  y19 <= 0

Bounds
x1 >= 0
x2 >= 0
x3 >= 0
x4 >= 0
x5 >= 0
x6 >= 0
x7 >= 0
x8 >= 0
x9 >= 0
x10 >= 0
x11 >= 0
x12 >= 0
x13 >= 0
x14 >= 0
x15 >= 0
x16 >= 0
x17 >= 0
x18 >= 0
x19 >= 0

General
x1 x2 x3 x4 x5 x6 x7 x8 x9 x10 x11 x12 x13 x14 x15 x16 x17 x18 x19 

Binary
y1 y2 y3 y4 y5 y6 y7 y8 y9 y10 y11 y12 y13 y14 y15 y16 y17 y18 y19 

End
